17	4
13	15	15	16	
0	0	0	0	0	3	2	3	4	
2	2	7	3	5	3	6	7	9	
4	4	10	10	4	3	5	12	17	
5	0	0	3	7	2	7	8	
1	5	7	3	0	3	8	17	17	
200	6	6	3	8	1	17	
175	0	8	6	5	1	17	
50	7	0	8	8	1	17	
100	0	6	0	0	3	10	15	17	
50	4	1	0	9	2	11	13	
225	0	2	0	0	2	14	17	
25	3	10	2	0	3	14	15	16	
3	4	7	3	7	1	14	
9	1	1	0	8	3	17	17	17	
8	2	0	9	4	2	17	17	
1	9	0	10	5	3	17	17	17	
0	0	0	0	0	0	
